
  32    4
  10   10   10   10

   0   0   0   0   0   4 2 29 30 31 
   9   1   1   1   0   2 28 3 
   2   2   3   0   1   2 27 4 
   5   4   1   3   0   1 5 
   6   0   4   2   4   1 6 
   1   3   3   5   0   1 7 
   4   7   0   4   6   1 8 
   9   3   0   2   2   2 26 9 
   5   4   0   4   3   2 25 10 
   3   5   3   4   0   1 11 
   7   5   4   4   0   2 24 12 
   4   2   0   5   1   1 13 
   1   3   0   6   7   1 14 
   6   3   6   2   0   1 15 
   7   0   2   1   8   2 23 16 
   7   4   1   4   0   1 17 
   5   5   7   0   4   1 18 
   1   4   8   4   0   1 19 
   5   4   6   5   0   1 20 
   9   2   0   5   6   1 21 
   8   4   7   3   0   1 22 
   3   3   5   5   0   1 32
   6   0   2   7   5   1 32
   7   3   4   0   5   1 32
   7   0   6   5   2   1 32
   4   8   6   3   0   1 32
   8   0   3   5   3   1 32
   8   0   4   2   4   1 32
  10   4   1   0   3   1 32
   4   8   4   8   0   1 32
   1   5   5   5   0   1 32
   0   0   0   0   0   0 
